
n_res = 4;
rcap = [21, 19, 253, 253];
rtype = [1, 1, 2, 2];
n_tasks = 50;
modes =  [{1, 2, 3}, {4, 5, 6}, {7, 8, 9}, {10, 11, 12}, {13, 14, 15}, {16, 17, 18}, {19, 20, 21}, {22, 23, 24}, {25, 26, 27}, {28, 29, 30}, {31, 32, 33}, {34, 35, 36}, {37, 38, 39}, {40, 41, 42}, {43, 44, 45}, {46, 47, 48}, {49, 50, 51}, {52, 53, 54}, {55, 56, 57}, {58, 59, 60}, {61, 62, 63}, {64, 65, 66}, {67, 68, 69}, {70, 71, 72}, {73, 74, 75}, {76, 77, 78}, {79, 80, 81}, {82, 83, 84}, {85, 86, 87}, {88, 89, 90}, {91, 92, 93}, {94, 95, 96}, {97, 98, 99}, {100, 101, 102}, {103, 104, 105}, {106, 107, 108}, {109, 110, 111}, {112, 113, 114}, {115, 116, 117}, {118, 119, 120}, {121, 122, 123}, {124, 125, 126}, {127, 128, 129}, {130, 131, 132}, {133, 134, 135}, {136, 137, 138}, {139, 140, 141}, {142, 143, 144}, {145, 146, 147}, {148, 149, 150}];
succ =  [{2}, {15, 8}, {15, 8}, {15, 8}, {15, 8}, {19, 16, 15, 13, 12, 11}, {8}, {19, 16, 13, 12, 11}, {19, 16, 13, 12}, {19, 13, 11}, {31, 20, 18, 14}, {31, 20, 18, 14}, {31, 20, 18, 17}, {26, 24, 22, 21, 17}, {31, 26, 25, 24, 23, 22}, {30, 26, 25, 23, 20}, {34, 30, 27, 25, 23}, {34, 29, 26, 21}, {39, 34, 31, 28, 27, 24}, {39, 34, 28, 27, 24}, {40, 39, 35, 30, 28}, {36, 34, 29, 27}, {40, 39, 35, 28}, {42, 40, 36, 35, 33}, {36, 35, 29}, {38, 27}, {42, 40, 35, 33}, {42, 36, 32}, {50, 42, 41, 40, 38, 37}, {42, 33, 32}, {42, 38, 33}, {50, 49, 41, 37}, {49, 41, 37}, {49, 46, 37}, {50, 37}, {46, 38}, {48, 47, 45, 43}, {49, 48, 45, 43}, {47, 46, 45, 43}, {46, 45, 43}, {47, 46, 45}, {46, 44}, {44}, {}, {}, {}, {}, {}, {}, {}];
n_opt = 150;
dur = [1, 8, 9, 1, 3, 5, 3, 5, 6, 6, 7, 9, 3, 5, 10, 4, 8, 9, 1, 5, 10, 4, 5, 9, 1, 6, 10, 6, 8, 9, 4, 5, 9, 3, 4, 7, 5, 6, 8, 1, 6, 10, 3, 6, 8, 2, 3, 7, 1, 2, 5, 3, 6, 9, 1, 3, 6, 3, 4, 5, 1, 9, 10, 7, 9, 10, 1, 4, 10, 2, 3, 4, 3, 4, 6, 1, 8, 9, 3, 4, 9, 1, 5, 6, 4, 7, 8, 6, 7, 8, 2, 3, 8, 4, 6, 8, 4, 5, 10, 1, 4, 5, 2, 9, 10, 6, 9, 10, 2, 8, 10, 2, 6, 10, 2, 5, 9, 1, 4, 8, 2, 9, 10, 2, 4, 5, 2, 7, 10, 1, 7, 8, 1, 6, 9, 6, 7, 8, 1, 2, 8, 4, 7, 9, 6, 9, 10, 4, 9, 10];
rreq = [|8, 7, 7, 10, 8, 7, 4, 4, 4, 8, 4, 1, 3, 3, 3, 5, 4, 3, 1, 1, 1, 5, 4, 1, 8, 8, 8, 3, 3, 2, 3, 3, 2, 6, 6, 6, 10, 6, 6, 7, 5, 2, 2, 1, 1, 5, 5, 2, 6, 6, 6, 9, 7, 6, 8, 6, 5, 3, 3, 3, 3, 3, 2, 5, 4, 4, 7, 3, 2, 6, 6, 6, 9, 8, 7, 8, 7, 2, 9, 7, 6, 3, 2, 1, 5, 5, 3, 8, 7, 7, 6, 5, 4, 2, 1, 1, 6, 5, 3, 6, 4, 3, 2, 1, 1, 7, 5, 4, 5, 2, 1, 7, 6, 4, 7, 5, 1, 7, 6, 4, 7, 5, 2, 4, 3, 1, 8, 7, 4, 4, 3, 1, 8, 7, 5, 9, 8, 8, 5, 4, 4, 8, 5, 3, 8, 8, 8, 9, 8, 6
 |9, 8, 6, 9, 7, 4, 9, 7, 6, 9, 6, 4, 2, 2, 2, 5, 3, 2, 6, 3, 3, 9, 8, 8, 5, 3, 3, 4, 3, 2, 8, 4, 4, 6, 4, 3, 8, 6, 3, 3, 3, 1, 7, 5, 4, 9, 7, 7, 6, 4, 2, 9, 7, 7, 4, 3, 2, 4, 3, 3, 8, 7, 7, 8, 8, 6, 7, 6, 2, 7, 4, 3, 9, 8, 8, 5, 5, 3, 9, 7, 6, 10, 8, 8, 5, 4, 4, 7, 7, 6, 5, 2, 1, 9, 8, 8, 9, 6, 5, 8, 5, 4, 9, 7, 5, 4, 3, 3, 3, 2, 1, 5, 3, 3, 6, 4, 4, 7, 7, 5, 8, 7, 7, 6, 5, 1, 6, 6, 4, 8, 8, 6, 5, 4, 3, 7, 6, 6, 5, 4, 4, 8, 4, 2, 5, 3, 2, 3, 2, 2
 |8, 7, 4, 5, 4, 3, 8, 4, 4, 1, 1, 1, 1, 1, 1, 9, 9, 7, 9, 7, 4, 5, 5, 5, 5, 5, 5, 7, 4, 2, 10, 6, 2, 9, 9, 9, 2, 2, 2, 9, 5, 2, 8, 7, 6, 6, 4, 3, 8, 5, 2, 2, 2, 2, 6, 5, 2, 3, 2, 2, 8, 4, 4, 8, 6, 3, 3, 2, 1, 6, 6, 6, 6, 4, 3, 5, 3, 1, 2, 2, 2, 3, 2, 2, 9, 8, 7, 9, 7, 6, 5, 4, 3, 6, 6, 4, 7, 7, 7, 4, 3, 2, 9, 9, 8, 8, 7, 7, 4, 4, 1, 9, 7, 7, 9, 9, 8, 7, 7, 7, 10, 4, 4, 3, 3, 3, 8, 6, 6, 8, 8, 8, 3, 2, 1, 6, 5, 5, 6, 5, 4, 8, 3, 1, 6, 5, 5, 6, 4, 1
 |6, 5, 4, 2, 2, 2, 5, 5, 4, 1, 1, 1, 7, 6, 5, 7, 7, 7, 7, 7, 5, 7, 6, 5, 6, 5, 4, 9, 8, 7, 6, 5, 5, 7, 7, 7, 8, 8, 8, 6, 5, 5, 10, 8, 8, 1, 1, 1, 6, 5, 4, 4, 4, 2, 6, 4, 3, 4, 3, 1, 8, 7, 7, 6, 6, 2, 10, 7, 5, 8, 8, 8, 6, 5, 5, 10, 10, 10, 3, 2, 1, 5, 3, 2, 2, 1, 1, 7, 7, 1, 4, 4, 3, 10, 6, 6, 8, 8, 6, 5, 4, 4, 10, 8, 8, 6, 5, 4, 8, 6, 4, 4, 2, 2, 4, 3, 1, 8, 6, 5, 1, 1, 1, 9, 7, 5, 4, 3, 3, 5, 5, 5, 7, 7, 5, 3, 3, 2, 5, 3, 2, 1, 1, 1, 9, 9, 9, 4, 4, 4|];